&BANDS
prefix="Graphene"
outdir="."
filband="Graphene-bands.dat"
/
