&DOS
   outdir='./',
   prefix='Graphene',
   fildos='Graphene.dos',
   Emin=-20,
   Emax=20,
/
